(set-info :smt-lib-version 2.6)
(set-logic UFLIA)
(set-info :source |Benchmarks from the paper: "Extending Sledgehammer with SMT Solvers" by Jasmin Blanchette, Sascha Bohme, and Lawrence C. Paulson, CADE 2011.  Translated to SMT2 by Andrew Reynolds and Morgan Deters.|)
(set-info :category "industrial")
(set-info :status unknown)
(declare-sort S1 0)
(declare-sort S2 0)
(declare-sort S3 0)
(declare-sort S4 0)
(declare-sort S5 0)
(declare-sort S6 0)
(declare-sort S7 0)
(declare-sort S8 0)
(declare-sort S9 0)
(declare-sort S10 0)
(declare-sort S11 0)
(declare-sort S12 0)
(declare-sort S13 0)
(declare-sort S14 0)
(declare-sort S15 0)
(declare-sort S16 0)
(declare-sort S17 0)
(declare-sort S18 0)
(declare-sort S19 0)
(declare-sort S20 0)
(declare-sort S21 0)
(declare-sort S22 0)
(declare-sort S23 0)
(declare-sort S24 0)
(declare-sort S25 0)
(declare-sort S26 0)
(declare-sort S27 0)
(declare-sort S28 0)
(declare-sort S29 0)
(declare-sort S30 0)
(declare-sort S31 0)
(declare-sort S32 0)
(declare-sort S33 0)
(declare-sort S34 0)
(declare-sort S35 0)
(declare-sort S36 0)
(declare-sort S37 0)
(declare-sort S38 0)
(declare-sort S39 0)
(declare-sort S40 0)
(declare-sort S41 0)
(declare-sort S42 0)
(declare-sort S43 0)
(declare-sort S44 0)
(declare-sort S45 0)
(declare-sort S46 0)
(declare-sort S47 0)
(declare-sort S48 0)
(declare-sort S49 0)
(declare-sort S50 0)
(declare-sort S51 0)
(declare-sort S52 0)
(declare-sort S53 0)
(declare-sort S54 0)
(declare-sort S55 0)
(declare-sort S56 0)
(declare-fun f1 () S1)
(declare-fun f2 () S1)
(declare-fun f3 (S3 S2) S4)
(declare-fun f4 () S3)
(declare-fun f5 (S5 S6) S4)
(declare-fun f6 (S7 S8) S5)
(declare-fun f7 (S9 S6) S7)
(declare-fun f8 () S9)
(declare-fun f9 (S10 S2) S6)
(declare-fun f10 () S10)
(declare-fun f11 (S11 S12) S8)
(declare-fun f12 () S11)
(declare-fun f13 (S2) S12)
(declare-fun f14 () S10)
(declare-fun f15 () S3)
(declare-fun f16 (S13 S2) S8)
(declare-fun f17 () S13)
(declare-fun f18 (S14 S4) S1)
(declare-fun f19 (S15 S14) S14)
(declare-fun f20 () S15)
(declare-fun f21 (S16 S14) S1)
(declare-fun f22 (S17 S4) S16)
(declare-fun f23 () S17)
(declare-fun f24 (S18 S2) S1)
(declare-fun f25 (S19 S18) S18)
(declare-fun f26 () S19)
(declare-fun f27 (S20 S18) S1)
(declare-fun f28 (S21 S2) S20)
(declare-fun f29 () S21)
(declare-fun f30 (S22 S10) S3)
(declare-fun f31 (S23 S10) S22)
(declare-fun f32 () S23)
(declare-fun f33 () S23)
(declare-fun f34 (S24 S14) S15)
(declare-fun f35 () S24)
(declare-fun f36 (S25 S18) S19)
(declare-fun f37 () S25)
(declare-fun f38 () S24)
(declare-fun f39 () S25)
(declare-fun f40 (S27 S2) S2)
(declare-fun f41 (S28 S3) S27)
(declare-fun f42 (S29 S26) S28)
(declare-fun f43 () S29)
(declare-fun f44 (S26 S4) S2)
(declare-fun f45 (S30 S4) S4)
(declare-fun f46 (S31 S26) S30)
(declare-fun f47 (S32 S3) S31)
(declare-fun f48 () S32)
(declare-fun f49 (S33 S14) S16)
(declare-fun f50 () S33)
(declare-fun f51 () S14)
(declare-fun f52 (S34 S18) S14)
(declare-fun f53 (S35 S3) S34)
(declare-fun f54 () S35)
(declare-fun f55 () S18)
(declare-fun f56 () S24)
(declare-fun f57 () S33)
(declare-fun f58 () S25)
(declare-fun f59 (S36 S14) S18)
(declare-fun f60 (S37 S26) S36)
(declare-fun f61 () S37)
(declare-fun f62 (S39 S38) S14)
(declare-fun f63 () S39)
(declare-fun f64 (S40 Int) S38)
(declare-fun f65 () S40)
(declare-fun f66 (S41 S38) Int)
(declare-fun f67 () S41)
(declare-fun f68 (S43 S4) S38)
(declare-fun f69 (S44 S42) S43)
(declare-fun f70 () S44)
(declare-fun f71 (S45 S1) S1)
(declare-fun f72 (S46 S1) S45)
(declare-fun f73 () S46)
(declare-fun f74 () S19)
(declare-fun f75 () S15)
(declare-fun f76 (S47 S27) S19)
(declare-fun f77 () S47)
(declare-fun f78 (S48 S30) S15)
(declare-fun f79 () S48)
(declare-fun f80 () S43)
(declare-fun f81 (S49 S4) S15)
(declare-fun f82 () S49)
(declare-fun f83 () S14)
(declare-fun f84 (S51 S50) S1)
(declare-fun f85 (S52 S50) S51)
(declare-fun f86 (S53 S8) S52)
(declare-fun f87 () S53)
(declare-fun f88 (S54 S38) S51)
(declare-fun f89 (S55 S50) S54)
(declare-fun f90 (S56 S8) S55)
(declare-fun f91 () S56)
(assert (not (= f1 f2)))
(assert (forall ((?v0 S2)) (= (f3 f4 ?v0) (f5 (f6 (f7 f8 (f9 f10 ?v0)) (f11 f12 (f13 ?v0))) (f9 f14 ?v0)))))
(assert (forall ((?v0 S2)) (= (f3 f15 ?v0) (f5 (f6 (f7 f8 (f9 f10 ?v0)) (f16 f17 ?v0)) (f9 f14 ?v0)))))
(assert (forall ((?v0 S14) (?v1 S4)) (= (= (f18 (f19 f20 ?v0) ?v1) f1) (= (f21 (f22 f23 ?v1) ?v0) f1))))
(assert (forall ((?v0 S18) (?v1 S2)) (= (= (f24 (f25 f26 ?v0) ?v1) f1) (= (f27 (f28 f29 ?v1) ?v0) f1))))
(assert (forall ((?v0 S10) (?v1 S10) (?v2 S2)) (= (f3 (f30 (f31 f32 ?v0) ?v1) ?v2) (f5 (f6 (f7 f8 (f9 ?v0 ?v2)) (f11 f12 (f13 ?v2))) (f9 ?v1 ?v2)))))
(assert (forall ((?v0 S10) (?v1 S10) (?v2 S2)) (= (f3 (f30 (f31 f33 ?v0) ?v1) ?v2) (f5 (f6 (f7 f8 (f9 ?v0 ?v2)) (f16 f17 ?v2)) (f9 ?v1 ?v2)))))
(assert (forall ((?v0 S14) (?v1 S14) (?v2 S4)) (let ((?v_0 (f22 f23 ?v2))) (= (= (f18 (f19 (f34 f35 ?v0) ?v1) ?v2) f1) (or (= (f21 ?v_0 ?v0) f1) (= (f21 ?v_0 ?v1) f1))))))
(assert (forall ((?v0 S18) (?v1 S18) (?v2 S2)) (let ((?v_0 (f28 f29 ?v2))) (= (= (f24 (f25 (f36 f37 ?v0) ?v1) ?v2) f1) (or (= (f27 ?v_0 ?v0) f1) (= (f27 ?v_0 ?v1) f1))))))
(assert (forall ((?v0 S14) (?v1 S14) (?v2 S4)) (= (= (f18 (f19 (f34 f38 ?v0) ?v1) ?v2) f1) (or (= (f18 ?v0 ?v2) f1) (= (f18 ?v1 ?v2) f1)))))
(assert (forall ((?v0 S18) (?v1 S18) (?v2 S2)) (= (= (f24 (f25 (f36 f39 ?v0) ?v1) ?v2) f1) (or (= (f24 ?v0 ?v2) f1) (= (f24 ?v1 ?v2) f1)))))
(assert (forall ((?v0 S26) (?v1 S3) (?v2 S2)) (= (f40 (f41 (f42 f43 ?v0) ?v1) ?v2) (f44 ?v0 (f3 ?v1 ?v2)))))
(assert (forall ((?v0 S3) (?v1 S26) (?v2 S4)) (= (f45 (f46 (f47 f48 ?v0) ?v1) ?v2) (f3 ?v0 (f44 ?v1 ?v2)))))
(assert (not (= (f21 (f49 f50 f51) (f52 (f53 f54 f15) f55)) f1)))
(assert (= (f21 (f49 f50 (f19 (f34 f56 f51) (f52 (f53 f54 f15) f55))) (f52 (f53 f54 f4) f55)) f1))
(assert (forall ((?v0 S6) (?v1 S8) (?v2 S6) (?v3 S6) (?v4 S8) (?v5 S6)) (= (= (f5 (f6 (f7 f8 ?v0) ?v1) ?v2) (f5 (f6 (f7 f8 ?v3) ?v4) ?v5)) (and (= ?v0 ?v3) (and (= ?v1 ?v4) (= ?v2 ?v5))))))
(assert (forall ((?v0 S14) (?v1 S10) (?v2 S10) (?v3 S18)) (let ((?v_0 (f52 (f53 f54 (f30 (f31 f33 ?v1) ?v2)) ?v3))) (=> (= (f21 (f49 f57 (f19 (f34 f56 ?v0) ?v_0)) (f52 (f53 f54 (f30 (f31 f32 ?v1) ?v2)) ?v3)) f1) (= (f21 (f49 f57 ?v0) ?v_0) f1)))))
(assert (forall ((?v0 S2) (?v1 S18) (?v2 S18)) (let ((?v_0 (f28 f29 ?v0))) (=> (= (f27 ?v_0 (f25 (f36 f58 ?v1) ?v2)) f1) (=> (=> (= (f27 ?v_0 ?v1) f1) false) (=> (=> (= (f27 ?v_0 ?v2) f1) false) false))))))
(assert (forall ((?v0 S4) (?v1 S14) (?v2 S14)) (let ((?v_0 (f22 f23 ?v0))) (=> (= (f21 ?v_0 (f19 (f34 f56 ?v1) ?v2)) f1) (=> (=> (= (f21 ?v_0 ?v1) f1) false) (=> (=> (= (f21 ?v_0 ?v2) f1) false) false))))))
(assert (forall ((?v0 S14) (?v1 S14) (?v2 S4)) (=> (= (f18 (f19 (f34 f56 ?v0) ?v1) ?v2) f1) (=> (=> (= (f18 ?v0 ?v2) f1) false) (=> (=> (= (f18 ?v1 ?v2) f1) false) false)))))
(assert (forall ((?v0 S18) (?v1 S18) (?v2 S2)) (=> (= (f24 (f25 (f36 f58 ?v0) ?v1) ?v2) f1) (=> (=> (= (f24 ?v0 ?v2) f1) false) (=> (=> (= (f24 ?v1 ?v2) f1) false) false)))))
(assert (forall ((?v0 S14) (?v1 S4) (?v2 S14)) (=> (=> (not (= (f18 ?v0 ?v1) f1)) (= (f18 ?v2 ?v1) f1)) (= (f18 (f19 (f34 f56 ?v2) ?v0) ?v1) f1))))
(assert (forall ((?v0 S18) (?v1 S2) (?v2 S18)) (=> (=> (not (= (f24 ?v0 ?v1) f1)) (= (f24 ?v2 ?v1) f1)) (= (f24 (f25 (f36 f58 ?v2) ?v0) ?v1) f1))))
(assert (forall ((?v0 S2) (?v1 S18) (?v2 S18)) (let ((?v_0 (f28 f29 ?v0))) (=> (=> (not (= (f27 ?v_0 ?v1) f1)) (= (f27 ?v_0 ?v2) f1)) (= (f27 ?v_0 (f25 (f36 f58 ?v2) ?v1)) f1)))))
(assert (forall ((?v0 S4) (?v1 S14) (?v2 S14)) (let ((?v_0 (f22 f23 ?v0))) (=> (=> (not (= (f21 ?v_0 ?v1) f1)) (= (f21 ?v_0 ?v2) f1)) (= (f21 ?v_0 (f19 (f34 f56 ?v2) ?v1)) f1)))))
(assert (forall ((?v0 S4) (?v1 S3) (?v2 S2) (?v3 S18)) (=> (= ?v0 (f3 ?v1 ?v2)) (=> (= (f27 (f28 f29 ?v2) ?v3) f1) (= (f21 (f22 f23 ?v0) (f52 (f53 f54 ?v1) ?v3)) f1)))))
(assert (forall ((?v0 S2) (?v1 S26) (?v2 S4) (?v3 S14)) (=> (= ?v0 (f44 ?v1 ?v2)) (=> (= (f21 (f22 f23 ?v2) ?v3) f1) (= (f27 (f28 f29 ?v0) (f59 (f60 f61 ?v1) ?v3)) f1)))))
(assert (forall ((?v0 S38) (?v1 S6) (?v2 S2) (?v3 S6)) (let ((?v_0 (f7 f8 ?v1))) (= (= (f18 (f62 f63 ?v0) (f5 (f6 ?v_0 (f11 f12 (f13 ?v2))) ?v3)) f1) (= (f18 (f62 f63 (f64 f65 (+ (f66 f67 ?v0) 1))) (f5 (f6 ?v_0 (f16 f17 ?v2)) ?v3)) f1)))))
(assert (forall ((?v0 S42) (?v1 S6) (?v2 S8) (?v3 S6)) (= (f68 (f69 f70 ?v0) (f5 (f6 (f7 f8 ?v1) ?v2) ?v3)) (f64 f65 0))))
(assert (forall ((?v0 S3) (?v1 S18) (?v2 S18)) (let ((?v_0 (f53 f54 ?v0))) (= (f52 ?v_0 (f25 (f36 f58 ?v1) ?v2)) (f19 (f34 f56 (f52 ?v_0 ?v1)) (f52 ?v_0 ?v2))))))
(assert (forall ((?v0 S26) (?v1 S14) (?v2 S14)) (let ((?v_0 (f60 f61 ?v0))) (= (f59 ?v_0 (f19 (f34 f56 ?v1) ?v2)) (f25 (f36 f58 (f59 ?v_0 ?v1)) (f59 ?v_0 ?v2))))))
(assert (forall ((?v0 S14) (?v1 S14) (?v2 S4)) (= (= (f18 (f19 (f34 f56 ?v0) ?v1) ?v2) f1) (= (f71 (f72 f73 (f18 ?v0 ?v2)) (f18 ?v1 ?v2)) f1))))
(assert (forall ((?v0 S18) (?v1 S18) (?v2 S2)) (= (= (f24 (f25 (f36 f58 ?v0) ?v1) ?v2) f1) (= (f71 (f72 f73 (f24 ?v0 ?v2)) (f24 ?v1 ?v2)) f1))))
(assert (forall ((?v0 S14) (?v1 S14) (?v2 S14)) (let ((?v_0 (f49 f57 ?v2))) (=> (= (f21 (f49 f57 ?v0) ?v1) f1) (=> (= (f21 ?v_0 ?v0) f1) (= (f21 ?v_0 ?v1) f1))))))
(assert (forall ((?v0 S38) (?v1 S4)) (=> (= (f18 (f62 f63 (f64 f65 (+ (f66 f67 ?v0) 1))) ?v1) f1) (= (f18 (f62 f63 ?v0) ?v1) f1))))
(assert (forall ((?v0 S14) (?v1 S38)) (=> (forall ((?v2 S4)) (=> (= (f21 (f22 f23 ?v2) ?v0) f1) (= (f18 (f62 f63 (f64 f65 (+ (f66 f67 ?v1) 1))) ?v2) f1))) (forall ((?v2 S4)) (=> (= (f21 (f22 f23 ?v2) ?v0) f1) (= (f18 (f62 f63 ?v1) ?v2) f1))))))
(assert (forall ((?v0 S14) (?v1 S14) (?v2 S14)) (let ((?v_0 (f34 f56 ?v0))) (= (f19 (f34 f56 (f19 ?v_0 ?v1)) ?v2) (f19 ?v_0 (f19 (f34 f56 ?v1) ?v2))))))
(assert (forall ((?v0 S18) (?v1 S18) (?v2 S18)) (let ((?v_0 (f36 f58 ?v0))) (= (f25 (f36 f58 (f25 ?v_0 ?v1)) ?v2) (f25 ?v_0 (f25 (f36 f58 ?v1) ?v2))))))
(assert (forall ((?v0 S1) (?v1 S1) (?v2 S1)) (let ((?v_0 (f72 f73 ?v0))) (= (= (f71 (f72 f73 (f71 ?v_0 ?v1)) ?v2) f1) (= (f71 ?v_0 (f71 (f72 f73 ?v1) ?v2)) f1)))))
(assert (forall ((?v0 S14) (?v1 S14) (?v2 S14)) (let ((?v_0 (f34 f56 ?v0))) (= (f19 (f34 f56 (f19 ?v_0 ?v1)) ?v2) (f19 ?v_0 (f19 (f34 f56 ?v1) ?v2))))))
(assert (forall ((?v0 S18) (?v1 S18) (?v2 S18)) (let ((?v_0 (f36 f58 ?v0))) (= (f25 (f36 f58 (f25 ?v_0 ?v1)) ?v2) (f25 ?v_0 (f25 (f36 f58 ?v1) ?v2))))))
(assert (forall ((?v0 S1) (?v1 S1) (?v2 S1)) (let ((?v_0 (f72 f73 ?v0))) (= (= (f71 (f72 f73 (f71 ?v_0 ?v1)) ?v2) f1) (= (f71 ?v_0 (f71 (f72 f73 ?v1) ?v2)) f1)))))
(assert (forall ((?v0 S14) (?v1 S14) (?v2 S14)) (let ((?v_0 (f34 f56 ?v0))) (= (f19 (f34 f56 (f19 ?v_0 ?v1)) ?v2) (f19 ?v_0 (f19 (f34 f56 ?v1) ?v2))))))
(assert (forall ((?v0 S18) (?v1 S18) (?v2 S18)) (let ((?v_0 (f36 f58 ?v0))) (= (f25 (f36 f58 (f25 ?v_0 ?v1)) ?v2) (f25 ?v_0 (f25 (f36 f58 ?v1) ?v2))))))
(assert (forall ((?v0 S1) (?v1 S1) (?v2 S1)) (let ((?v_0 (f72 f73 ?v0))) (= (= (f71 (f72 f73 (f71 ?v_0 ?v1)) ?v2) f1) (= (f71 ?v_0 (f71 (f72 f73 ?v1) ?v2)) f1)))))
(assert (forall ((?v0 S14) (?v1 S14) (?v2 S14)) (let ((?v_1 (f34 f56 ?v0)) (?v_0 (f34 f56 ?v1))) (= (f19 ?v_1 (f19 ?v_0 ?v2)) (f19 ?v_0 (f19 ?v_1 ?v2))))))
(assert (forall ((?v0 S18) (?v1 S18) (?v2 S18)) (let ((?v_1 (f36 f58 ?v0)) (?v_0 (f36 f58 ?v1))) (= (f25 ?v_1 (f25 ?v_0 ?v2)) (f25 ?v_0 (f25 ?v_1 ?v2))))))
(assert (forall ((?v0 S1) (?v1 S1) (?v2 S1)) (let ((?v_1 (f72 f73 ?v0)) (?v_0 (f72 f73 ?v1))) (= (= (f71 ?v_1 (f71 ?v_0 ?v2)) f1) (= (f71 ?v_0 (f71 ?v_1 ?v2)) f1)))))
(assert (forall ((?v0 S14) (?v1 S14) (?v2 S14)) (let ((?v_1 (f34 f56 ?v0)) (?v_0 (f34 f56 ?v1))) (= (f19 ?v_1 (f19 ?v_0 ?v2)) (f19 ?v_0 (f19 ?v_1 ?v2))))))
(assert (forall ((?v0 S18) (?v1 S18) (?v2 S18)) (let ((?v_1 (f36 f58 ?v0)) (?v_0 (f36 f58 ?v1))) (= (f25 ?v_1 (f25 ?v_0 ?v2)) (f25 ?v_0 (f25 ?v_1 ?v2))))))
(assert (forall ((?v0 S1) (?v1 S1) (?v2 S1)) (let ((?v_1 (f72 f73 ?v0)) (?v_0 (f72 f73 ?v1))) (= (= (f71 ?v_1 (f71 ?v_0 ?v2)) f1) (= (f71 ?v_0 (f71 ?v_1 ?v2)) f1)))))
(assert (forall ((?v0 S14) (?v1 S14) (?v2 S14)) (let ((?v_1 (f34 f56 ?v0)) (?v_0 (f34 f56 ?v1))) (= (f19 ?v_1 (f19 ?v_0 ?v2)) (f19 ?v_0 (f19 ?v_1 ?v2))))))
(assert (forall ((?v0 S18) (?v1 S18) (?v2 S18)) (let ((?v_1 (f36 f58 ?v0)) (?v_0 (f36 f58 ?v1))) (= (f25 ?v_1 (f25 ?v_0 ?v2)) (f25 ?v_0 (f25 ?v_1 ?v2))))))
(assert (forall ((?v0 S1) (?v1 S1) (?v2 S1)) (let ((?v_1 (f72 f73 ?v0)) (?v_0 (f72 f73 ?v1))) (= (= (f71 ?v_1 (f71 ?v_0 ?v2)) f1) (= (f71 ?v_0 (f71 ?v_1 ?v2)) f1)))))
(assert (forall ((?v0 S14) (?v1 S14)) (let ((?v_0 (f34 f56 ?v0))) (let ((?v_1 (f19 ?v_0 ?v1))) (= (f19 ?v_0 ?v_1) ?v_1)))))
(assert (forall ((?v0 S18) (?v1 S18)) (let ((?v_0 (f36 f58 ?v0))) (let ((?v_1 (f25 ?v_0 ?v1))) (= (f25 ?v_0 ?v_1) ?v_1)))))
(assert (forall ((?v0 S1) (?v1 S1)) (let ((?v_0 (f72 f73 ?v0))) (let ((?v_1 (f71 ?v_0 ?v1))) (= (= (f71 ?v_0 ?v_1) f1) (= ?v_1 f1))))))
(assert (forall ((?v0 S14) (?v1 S14)) (let ((?v_0 (f34 f56 ?v0))) (let ((?v_1 (f19 ?v_0 ?v1))) (= (f19 ?v_0 ?v_1) ?v_1)))))
(assert (forall ((?v0 S18) (?v1 S18)) (let ((?v_0 (f36 f58 ?v0))) (let ((?v_1 (f25 ?v_0 ?v1))) (= (f25 ?v_0 ?v_1) ?v_1)))))
(assert (forall ((?v0 S1) (?v1 S1)) (let ((?v_0 (f72 f73 ?v0))) (let ((?v_1 (f71 ?v_0 ?v1))) (= (= (f71 ?v_0 ?v_1) f1) (= ?v_1 f1))))))
(assert (forall ((?v0 S14) (?v1 S14)) (let ((?v_0 (f34 f56 ?v0))) (let ((?v_1 (f19 ?v_0 ?v1))) (= (f19 ?v_0 ?v_1) ?v_1)))))
(assert (forall ((?v0 S18) (?v1 S18)) (let ((?v_0 (f36 f58 ?v0))) (let ((?v_1 (f25 ?v_0 ?v1))) (= (f25 ?v_0 ?v_1) ?v_1)))))
(assert (forall ((?v0 S1) (?v1 S1)) (let ((?v_0 (f72 f73 ?v0))) (let ((?v_1 (f71 ?v_0 ?v1))) (= (= (f71 ?v_0 ?v_1) f1) (= ?v_1 f1))))))
(assert (forall ((?v0 S14) (?v1 S14)) (= (f19 (f34 f56 ?v0) ?v1) (f19 (f34 f56 ?v1) ?v0))))
(assert (forall ((?v0 S18) (?v1 S18)) (= (f25 (f36 f58 ?v0) ?v1) (f25 (f36 f58 ?v1) ?v0))))
(assert (forall ((?v0 S1) (?v1 S1)) (= (= (f71 (f72 f73 ?v0) ?v1) f1) (= (f71 (f72 f73 ?v1) ?v0) f1))))
(assert (forall ((?v0 S14) (?v1 S14)) (= (f19 (f34 f56 ?v0) ?v1) (f19 (f34 f56 ?v1) ?v0))))
(assert (forall ((?v0 S18) (?v1 S18)) (= (f25 (f36 f58 ?v0) ?v1) (f25 (f36 f58 ?v1) ?v0))))
(assert (forall ((?v0 S1) (?v1 S1)) (= (= (f71 (f72 f73 ?v0) ?v1) f1) (= (f71 (f72 f73 ?v1) ?v0) f1))))
(assert (forall ((?v0 S14) (?v1 S14)) (= (f19 (f34 f56 ?v0) ?v1) (f19 (f34 f56 ?v1) ?v0))))
(assert (forall ((?v0 S18) (?v1 S18)) (= (f25 (f36 f58 ?v0) ?v1) (f25 (f36 f58 ?v1) ?v0))))
(assert (forall ((?v0 S1) (?v1 S1)) (= (= (f71 (f72 f73 ?v0) ?v1) f1) (= (f71 (f72 f73 ?v1) ?v0) f1))))
(assert (forall ((?v0 S14)) (= (f19 (f34 f56 ?v0) ?v0) ?v0)))
(assert (forall ((?v0 S18)) (= (f25 (f36 f58 ?v0) ?v0) ?v0)))
(assert (forall ((?v0 S1)) (= (= (f71 (f72 f73 ?v0) ?v0) f1) (= ?v0 f1))))
(assert (forall ((?v0 S14)) (= (f19 (f34 f56 ?v0) ?v0) ?v0)))
(assert (forall ((?v0 S18)) (= (f25 (f36 f58 ?v0) ?v0) ?v0)))
(assert (forall ((?v0 S1)) (= (= (f71 (f72 f73 ?v0) ?v0) f1) (= ?v0 f1))))
(assert (forall ((?v0 S2) (?v1 S18) (?v2 S4) (?v3 S3)) (=> (= (f27 (f28 f29 ?v0) ?v1) f1) (=> (= ?v2 (f3 ?v3 ?v0)) (= (f21 (f22 f23 ?v2) (f52 (f53 f54 ?v3) ?v1)) f1)))))
(assert (forall ((?v0 S4) (?v1 S14) (?v2 S2) (?v3 S26)) (=> (= (f21 (f22 f23 ?v0) ?v1) f1) (=> (= ?v2 (f44 ?v3 ?v0)) (= (f27 (f28 f29 ?v2) (f59 (f60 f61 ?v3) ?v1)) f1)))))
(assert (forall ((?v0 S2) (?v1 S18) (?v2 S3)) (=> (= (f27 (f28 f29 ?v0) ?v1) f1) (= (f21 (f22 f23 (f3 ?v2 ?v0)) (f52 (f53 f54 ?v2) ?v1)) f1))))
(assert (forall ((?v0 S4) (?v1 S14) (?v2 S26)) (=> (= (f21 (f22 f23 ?v0) ?v1) f1) (= (f27 (f28 f29 (f44 ?v2 ?v0)) (f59 (f60 f61 ?v2) ?v1)) f1))))
(assert (forall ((?v0 S4) (?v1 S3) (?v2 S18)) (= (= (f21 (f22 f23 ?v0) (f52 (f53 f54 ?v1) ?v2)) f1) (exists ((?v3 S2)) (and (= (f27 (f28 f29 ?v3) ?v2) f1) (= ?v0 (f3 ?v1 ?v3)))))))
(assert (forall ((?v0 S2) (?v1 S26) (?v2 S14)) (= (= (f27 (f28 f29 ?v0) (f59 (f60 f61 ?v1) ?v2)) f1) (exists ((?v3 S4)) (and (= (f21 (f22 f23 ?v3) ?v2) f1) (= ?v0 (f44 ?v1 ?v3)))))))
(assert (forall ((?v0 S2) (?v1 S18) (?v2 S18)) (let ((?v_0 (f28 f29 ?v0))) (=> (= (f27 ?v_0 ?v1) f1) (= (f27 ?v_0 (f25 (f36 f58 ?v2) ?v1)) f1)))))
(assert (forall ((?v0 S4) (?v1 S14) (?v2 S14)) (let ((?v_0 (f22 f23 ?v0))) (=> (= (f21 ?v_0 ?v1) f1) (= (f21 ?v_0 (f19 (f34 f56 ?v2) ?v1)) f1)))))
(assert (forall ((?v0 S2) (?v1 S18) (?v2 S18)) (let ((?v_0 (f28 f29 ?v0))) (=> (= (f27 ?v_0 ?v1) f1) (= (f27 ?v_0 (f25 (f36 f58 ?v1) ?v2)) f1)))))
(assert (forall ((?v0 S4) (?v1 S14) (?v2 S14)) (let ((?v_0 (f22 f23 ?v0))) (=> (= (f21 ?v_0 ?v1) f1) (= (f21 ?v_0 (f19 (f34 f56 ?v1) ?v2)) f1)))))
(assert (forall ((?v0 S14) (?v1 S4) (?v2 S14)) (=> (= (f18 ?v0 ?v1) f1) (= (f18 (f19 (f34 f56 ?v2) ?v0) ?v1) f1))))
(assert (forall ((?v0 S18) (?v1 S2) (?v2 S18)) (=> (= (f24 ?v0 ?v1) f1) (= (f24 (f25 (f36 f58 ?v2) ?v0) ?v1) f1))))
(assert (forall ((?v0 S14) (?v1 S4) (?v2 S14)) (=> (= (f18 ?v0 ?v1) f1) (= (f18 (f19 (f34 f56 ?v0) ?v2) ?v1) f1))))
(assert (forall ((?v0 S18) (?v1 S2) (?v2 S18)) (=> (= (f24 ?v0 ?v1) f1) (= (f24 (f25 (f36 f58 ?v0) ?v2) ?v1) f1))))
(assert (forall ((?v0 S18) (?v1 S18) (?v2 S18)) (= (forall ((?v3 S2)) (=> (= (f27 (f28 f29 ?v3) (f25 (f36 f58 ?v0) ?v1)) f1) (= (f24 ?v2 ?v3) f1))) (and (forall ((?v3 S2)) (=> (= (f27 (f28 f29 ?v3) ?v0) f1) (= (f24 ?v2 ?v3) f1))) (forall ((?v3 S2)) (=> (= (f27 (f28 f29 ?v3) ?v1) f1) (= (f24 ?v2 ?v3) f1)))))))
(assert (forall ((?v0 S14) (?v1 S14) (?v2 S14)) (= (forall ((?v3 S4)) (=> (= (f21 (f22 f23 ?v3) (f19 (f34 f56 ?v0) ?v1)) f1) (= (f18 ?v2 ?v3) f1))) (and (forall ((?v3 S4)) (=> (= (f21 (f22 f23 ?v3) ?v0) f1) (= (f18 ?v2 ?v3) f1))) (forall ((?v3 S4)) (=> (= (f21 (f22 f23 ?v3) ?v1) f1) (= (f18 ?v2 ?v3) f1)))))))
(assert (forall ((?v0 S18) (?v1 S18) (?v2 S18)) (= (exists ((?v3 S2)) (and (= (f27 (f28 f29 ?v3) (f25 (f36 f58 ?v0) ?v1)) f1) (= (f24 ?v2 ?v3) f1))) (or (exists ((?v3 S2)) (and (= (f27 (f28 f29 ?v3) ?v0) f1) (= (f24 ?v2 ?v3) f1))) (exists ((?v3 S2)) (and (= (f27 (f28 f29 ?v3) ?v1) f1) (= (f24 ?v2 ?v3) f1)))))))
(assert (forall ((?v0 S14) (?v1 S14) (?v2 S14)) (= (exists ((?v3 S4)) (and (= (f21 (f22 f23 ?v3) (f19 (f34 f56 ?v0) ?v1)) f1) (= (f18 ?v2 ?v3) f1))) (or (exists ((?v3 S4)) (and (= (f21 (f22 f23 ?v3) ?v0) f1) (= (f18 ?v2 ?v3) f1))) (exists ((?v3 S4)) (and (= (f21 (f22 f23 ?v3) ?v1) f1) (= (f18 ?v2 ?v3) f1)))))))
(assert (forall ((?v0 S14) (?v1 S14) (?v2 S14)) (let ((?v_0 (f34 f56 ?v0))) (= (f19 (f34 f56 (f19 ?v_0 ?v1)) ?v2) (f19 ?v_0 (f19 (f34 f56 ?v1) ?v2))))))
(assert (forall ((?v0 S18) (?v1 S18) (?v2 S18)) (let ((?v_0 (f36 f58 ?v0))) (= (f25 (f36 f58 (f25 ?v_0 ?v1)) ?v2) (f25 ?v_0 (f25 (f36 f58 ?v1) ?v2))))))
(assert (forall ((?v0 S2) (?v1 S18) (?v2 S18)) (let ((?v_0 (f28 f29 ?v0))) (= (= (f27 ?v_0 (f25 (f36 f58 ?v1) ?v2)) f1) (or (= (f27 ?v_0 ?v1) f1) (= (f27 ?v_0 ?v2) f1))))))
(assert (forall ((?v0 S4) (?v1 S14) (?v2 S14)) (let ((?v_0 (f22 f23 ?v0))) (= (= (f21 ?v_0 (f19 (f34 f56 ?v1) ?v2)) f1) (or (= (f21 ?v_0 ?v1) f1) (= (f21 ?v_0 ?v2) f1))))))
(assert (forall ((?v0 S14) (?v1 S14) (?v2 S14)) (let ((?v_1 (f34 f56 ?v0)) (?v_0 (f34 f56 ?v1))) (= (f19 ?v_1 (f19 ?v_0 ?v2)) (f19 ?v_0 (f19 ?v_1 ?v2))))))
(assert (forall ((?v0 S18) (?v1 S18) (?v2 S18)) (let ((?v_1 (f36 f58 ?v0)) (?v_0 (f36 f58 ?v1))) (= (f25 ?v_1 (f25 ?v_0 ?v2)) (f25 ?v_0 (f25 ?v_1 ?v2))))))
(assert (forall ((?v0 S14) (?v1 S14)) (let ((?v_0 (f34 f56 ?v0))) (let ((?v_1 (f19 ?v_0 ?v1))) (= (f19 ?v_0 ?v_1) ?v_1)))))
(assert (forall ((?v0 S18) (?v1 S18)) (let ((?v_0 (f36 f58 ?v0))) (let ((?v_1 (f25 ?v_0 ?v1))) (= (f25 ?v_0 ?v_1) ?v_1)))))
(assert (forall ((?v0 S14) (?v1 S14)) (= (f19 (f34 f56 ?v0) ?v1) (f19 (f34 f56 ?v1) ?v0))))
(assert (forall ((?v0 S18) (?v1 S18)) (= (f25 (f36 f58 ?v0) ?v1) (f25 (f36 f58 ?v1) ?v0))))
(assert (forall ((?v0 S18) (?v1 S18)) (= (f25 (f36 f58 ?v0) ?v1) (f25 f74 (f25 (f36 f37 ?v0) ?v1)))))
(assert (forall ((?v0 S14) (?v1 S14)) (= (f19 (f34 f56 ?v0) ?v1) (f19 f75 (f19 (f34 f35 ?v0) ?v1)))))
(assert (forall ((?v0 S14)) (= (f19 (f34 f56 ?v0) ?v0) ?v0)))
(assert (forall ((?v0 S18)) (= (f25 (f36 f58 ?v0) ?v0) ?v0)))
(assert (forall ((?v0 S14) (?v1 S14)) (= (= (f21 (f49 f50 ?v0) ?v1) f1) (forall ((?v2 S38)) (=> (forall ((?v3 S4)) (=> (= (f21 (f22 f23 ?v3) ?v0) f1) (= (f18 (f62 f63 ?v2) ?v3) f1))) (forall ((?v3 S4)) (=> (= (f21 (f22 f23 ?v3) ?v1) f1) (= (f18 (f62 f63 ?v2) ?v3) f1))))))))
(assert (forall ((?v0 S6) (?v1 S2) (?v2 S6)) (= (f18 (f62 f63 (f64 f65 0)) (f5 (f6 (f7 f8 ?v0) (f16 f17 ?v1)) ?v2)) f1)))
(assert (forall ((?v0 S26) (?v1 S3) (?v2 S18)) (= (f59 (f60 f61 ?v0) (f52 (f53 f54 ?v1) ?v2)) (f25 (f76 f77 (f41 (f42 f43 ?v0) ?v1)) ?v2))))
(assert (forall ((?v0 S3) (?v1 S26) (?v2 S14)) (= (f52 (f53 f54 ?v0) (f59 (f60 f61 ?v1) ?v2)) (f19 (f78 f79 (f46 (f47 f48 ?v0) ?v1)) ?v2))))
(assert (forall ((?v0 S18) (?v1 S18) (?v2 S2)) (= (= (f24 (f25 (f36 f58 (f25 f26 ?v0)) (f25 f26 ?v1)) ?v2) f1) (= (f27 (f28 f29 ?v2) (f25 (f36 f58 ?v0) ?v1)) f1))))
(assert (forall ((?v0 S14) (?v1 S14) (?v2 S4)) (= (= (f18 (f19 (f34 f56 (f19 f20 ?v0)) (f19 f20 ?v1)) ?v2) f1) (= (f21 (f22 f23 ?v2) (f19 (f34 f56 ?v0) ?v1)) f1))))
(assert (forall ((?v0 S14) (?v1 S14)) (= (f19 f75 (f19 (f34 f38 ?v0) ?v1)) (f19 (f34 f56 (f19 f75 ?v0)) (f19 f75 ?v1)))))
(assert (forall ((?v0 S18) (?v1 S18)) (= (f25 f74 (f25 (f36 f39 ?v0) ?v1)) (f25 (f36 f58 (f25 f74 ?v0)) (f25 f74 ?v1)))))
(assert (forall ((?v0 S14) (?v1 S14) (?v2 S4)) (= (= (f18 (f19 (f34 f56 ?v0) ?v1) ?v2) f1) (= (f71 (f72 f73 (f18 ?v0 ?v2)) (f18 ?v1 ?v2)) f1))))
(assert (forall ((?v0 S18) (?v1 S18) (?v2 S2)) (= (= (f24 (f25 (f36 f58 ?v0) ?v1) ?v2) f1) (= (f71 (f72 f73 (f24 ?v0 ?v2)) (f24 ?v1 ?v2)) f1))))
(assert (forall ((?v0 S4) (?v1 S3) (?v2 S18)) (=> (= (f21 (f22 f23 ?v0) (f52 (f53 f54 ?v1) ?v2)) f1) (=> (forall ((?v3 S2)) (=> (= ?v0 (f3 ?v1 ?v3)) (=> (= (f27 (f28 f29 ?v3) ?v2) f1) false))) false))))
(assert (forall ((?v0 S2) (?v1 S26) (?v2 S14)) (=> (= (f27 (f28 f29 ?v0) (f59 (f60 f61 ?v1) ?v2)) f1) (=> (forall ((?v3 S4)) (=> (= ?v0 (f44 ?v1 ?v3)) (=> (= (f21 (f22 f23 ?v3) ?v2) f1) false))) false))))
(assert (forall ((?v0 S6) (?v1 S8) (?v2 S6)) (= (f68 f80 (f5 (f6 (f7 f8 ?v0) ?v1) ?v2)) (f64 f65 0))))
(assert (forall ((?v0 S4)) (=> (forall ((?v1 S6) (?v2 S8) (?v3 S6)) (=> (= ?v0 (f5 (f6 (f7 f8 ?v1) ?v2) ?v3)) false)) false)))
(assert (forall ((?v0 S14) (?v1 S10) (?v2 S10) (?v3 S18) (?v4 S2)) (=> (= (f21 (f49 f57 (f19 (f34 f56 ?v0) (f52 (f53 f54 (f30 (f31 f33 ?v1) ?v2)) ?v3))) (f52 (f53 f54 (f30 (f31 f32 ?v1) ?v2)) ?v3)) f1) (=> (= (f27 (f28 f29 ?v4) ?v3) f1) (= (f21 (f49 f57 ?v0) (f19 (f81 f82 (f5 (f6 (f7 f8 (f9 ?v1 ?v4)) (f16 f17 ?v4)) (f9 ?v2 ?v4))) f83)) f1)))))
(assert (forall ((?v0 S18) (?v1 S18) (?v2 S3) (?v3 S3)) (=> (= ?v0 ?v1) (=> (forall ((?v4 S2)) (=> (= (f27 (f28 f29 ?v4) ?v1) f1) (= (f3 ?v2 ?v4) (f3 ?v3 ?v4)))) (= (f52 (f53 f54 ?v2) ?v0) (f52 (f53 f54 ?v3) ?v1))))))
(assert (forall ((?v0 S14) (?v1 S14) (?v2 S26) (?v3 S26)) (=> (= ?v0 ?v1) (=> (forall ((?v4 S4)) (=> (= (f21 (f22 f23 ?v4) ?v1) f1) (= (f44 ?v2 ?v4) (f44 ?v3 ?v4)))) (= (f59 (f60 f61 ?v2) ?v0) (f59 (f60 f61 ?v3) ?v1))))))
(assert (forall ((?v0 S2) (?v1 S2)) (= (= (f16 f17 ?v0) (f16 f17 ?v1)) (= ?v0 ?v1))))
(assert (forall ((?v0 S2) (?v1 S50) (?v2 S50)) (=> (= (f84 (f85 (f86 f87 (f11 f12 (f13 ?v0))) ?v1) ?v2) f1) (= (f84 (f85 (f86 f87 (f16 f17 ?v0)) ?v1) ?v2) f1))))
(assert (forall ((?v0 S2) (?v1 S50) (?v2 S50)) (=> (= (f84 (f85 (f86 f87 (f16 f17 ?v0)) ?v1) ?v2) f1) (=> (=> (= (f84 (f85 (f86 f87 (f11 f12 (f13 ?v0))) ?v1) ?v2) f1) false) false))))
(assert (forall ((?v0 S2) (?v1 S50) (?v2 S38) (?v3 S50)) (=> (= (f84 (f88 (f89 (f90 f91 (f11 f12 (f13 ?v0))) ?v1) ?v2) ?v3) f1) (= (f84 (f88 (f89 (f90 f91 (f16 f17 ?v0)) ?v1) (f64 f65 (+ (f66 f67 ?v2) 1))) ?v3) f1))))
(assert (forall ((?v0 S38)) (= (f64 f65 (f66 f67 ?v0)) ?v0)))
(assert (forall ((?v0 Int)) (=> (<= 0 ?v0) (= (f66 f67 (f64 f65 ?v0)) ?v0))))
(assert (forall ((?v0 Int)) (=> (< ?v0 0) (= (f66 f67 (f64 f65 ?v0)) 0))))
(check-sat)
(exit)
